784 1568
1 2 1
1 29 1
2 3 1
2 30 3
3 4 4
3 31 3
4 5 2
4 32 1
5 6 5
5 33 3
6 7 3
6 34 5
7 8 5
7 35 2
8 9 1
8 36 5
9 10 4
9 37 5
10 11 5
10 38 1
11 12 1
11 39 2
12 13 5
12 40 3
13 14 5
13 41 2
14 15 4
14 42 5
15 16 1
15 43 4
16 17 4
16 44 3
17 18 3
17 45 5
18 19 3
18 46 5
19 20 3
19 47 5
20 21 1
20 48 5
21 22 3
21 49 1
22 23 2
22 50 2
23 24 1
23 51 5
24 25 5
24 52 5
25 26 1
25 53 4
26 27 3
26 54 2
27 28 3
27 55 1
28 56 4
29 30 3
29 57 1
30 31 2
30 58 3
31 32 1
31 59 2
32 33 3
32 60 1
33 34 4
33 61 2
34 35 2
34 62 1
35 36 5
35 63 4
36 37 1
36 64 3
37 38 5
37 65 2
38 39 3
38 66 2
39 40 4
39 67 5
40 41 2
40 68 4
41 42 5
41 69 3
42 43 1
42 70 3
43 44 3
43 71 3
44 45 2
44 72 2
45 46 3
45 73 5
46 47 1
46 74 4
47 48 3
47 75 4
48 49 4
48 76 1
49 50 5
49 77 5
50 51 5
50 78 2
51 52 2
51 79 3
52 53 2
52 80 4
53 54 1
53 81 4
54 55 1
54 82 2
55 56 1
55 83 2
56 84 1
57 58 1
57 85 4
58 59 4
58 86 1
59 60 3
59 87 5
60 61 3
60 88 4
61 62 3
61 89 4
62 63 2
62 90 1
63 64 4
63 91 2
64 65 1
64 92 5
65 66 3
65 93 1
66 67 5
66 94 2
67 68 2
67 95 3
68 69 3
68 96 5
69 70 3
69 97 1
70 71 2
70 98 1
71 72 1
71 99 2
72 73 1
72 100 2
73 74 3
73 101 2
74 75 2
74 102 3
75 76 2
75 103 2
76 77 4
76 104 1
77 78 3
77 105 5
78 79 5
78 106 1
79 80 5
79 107 4
80 81 3
80 108 1
81 82 2
81 109 2
82 83 4
82 110 3
83 84 2
83 111 4
84 112 5
85 86 3
85 113 2
86 87 4
86 114 4
87 88 2
87 115 5
88 89 2
88 116 3
89 90 5
89 117 3
90 91 1
90 118 4
91 92 1
91 119 1
92 93 1
92 120 3
93 94 1
93 121 3
94 95 2
94 122 4
95 96 3
95 123 3
96 97 2
96 124 3
97 98 5
97 125 1
98 99 4
98 126 2
99 100 2
99 127 1
100 101 1
100 128 2
101 102 3
101 129 3
102 103 2
102 130 5
103 104 1
103 131 5
104 105 2
104 132 5
105 106 4
105 133 2
106 107 1
106 134 3
107 108 4
107 135 1
108 109 2
108 136 4
109 110 5
109 137 5
110 111 1
110 138 2
111 112 1
111 139 5
112 140 5
113 114 1
113 141 5
114 115 5
114 142 1
115 116 5
115 143 4
116 117 5
116 144 5
117 118 3
117 145 3
118 119 3
118 146 3
119 120 4
119 147 5
120 121 5
120 148 2
121 122 2
121 149 4
122 123 3
122 150 2
123 124 5
123 151 5
124 125 3
124 152 2
125 126 1
125 153 4
126 127 4
126 154 1
127 128 3
127 155 2
128 129 3
128 156 2
129 130 3
129 157 1
130 131 5
130 158 3
131 132 4
131 159 3
132 133 2
132 160 1
133 134 2
133 161 5
134 135 2
134 162 1
135 136 5
135 163 3
136 137 3
136 164 5
137 138 5
137 165 4
138 139 2
138 166 1
139 140 4
139 167 3
140 168 4
141 142 2
141 169 3
142 143 5
142 170 5
143 144 2
143 171 3
144 145 1
144 172 3
145 146 1
145 173 4
146 147 5
146 174 2
147 148 4
147 175 2
148 149 4
148 176 1
149 150 3
149 177 3
150 151 4
150 178 2
151 152 2
151 179 5
152 153 3
152 180 4
153 154 2
153 181 4
154 155 2
154 182 1
155 156 2
155 183 4
156 157 1
156 184 1
157 158 5
157 185 5
158 159 1
158 186 5
159 160 2
159 187 4
160 161 3
160 188 2
161 162 2
161 189 1
162 163 2
162 190 4
163 164 2
163 191 1
164 165 4
164 192 5
165 166 3
165 193 4
166 167 4
166 194 5
167 168 1
167 195 2
168 196 5
169 170 3
169 197 4
170 171 4
170 198 1
171 172 4
171 199 5
172 173 1
172 200 2
173 174 1
173 201 4
174 175 3
174 202 5
175 176 1
175 203 5
176 177 5
176 204 3
177 178 3
177 205 3
178 179 5
178 206 3
179 180 2
179 207 3
180 181 1
180 208 4
181 182 1
181 209 2
182 183 1
182 210 1
183 184 5
183 211 3
184 185 5
184 212 4
185 186 5
185 213 5
186 187 4
186 214 4
187 188 2
187 215 4
188 189 3
188 216 5
189 190 3
189 217 2
190 191 3
190 218 3
191 192 5
191 219 5
192 193 3
192 220 4
193 194 3
193 221 4
194 195 4
194 222 2
195 196 4
195 223 4
196 224 5
197 198 1
197 225 1
198 199 3
198 226 2
199 200 4
199 227 4
200 201 2
200 228 4
201 202 3
201 229 3
202 203 5
202 230 1
203 204 3
203 231 2
204 205 2
204 232 1
205 206 3
205 233 5
206 207 5
206 234 3
207 208 4
207 235 5
208 209 5
208 236 1
209 210 5
209 237 5
210 211 1
210 238 3
211 212 3
211 239 1
212 213 2
212 240 3
213 214 2
213 241 1
214 215 3
214 242 3
215 216 5
215 243 3
216 217 4
216 244 3
217 218 4
217 245 3
218 219 5
218 246 2
219 220 1
219 247 1
220 221 4
220 248 3
221 222 3
221 249 5
222 223 1
222 250 2
223 224 2
223 251 4
224 252 1
225 226 1
225 253 3
226 227 5
226 254 5
227 228 5
227 255 5
228 229 3
228 256 4
229 230 5
229 257 3
230 231 3
230 258 5
231 232 1
231 259 5
232 233 4
232 260 4
233 234 3
233 261 4
234 235 5
234 262 3
235 236 5
235 263 2
236 237 1
236 264 5
237 238 4
237 265 5
238 239 4
238 266 1
239 240 4
239 267 5
240 241 5
240 268 3
241 242 2
241 269 2
242 243 4
242 270 5
243 244 1
243 271 2
244 245 4
244 272 5
245 246 2
245 273 3
246 247 2
246 274 5
247 248 1
247 275 1
248 249 2
248 276 2
249 250 2
249 277 1
250 251 4
250 278 3
251 252 4
251 279 5
252 280 3
253 254 5
253 281 3
254 255 3
254 282 1
255 256 5
255 283 1
256 257 2
256 284 1
257 258 2
257 285 2
258 259 3
258 286 5
259 260 4
259 287 1
260 261 2
260 288 1
261 262 3
261 289 5
262 263 5
262 290 3
263 264 1
263 291 2
264 265 3
264 292 4
265 266 3
265 293 5
266 267 4
266 294 5
267 268 5
267 295 4
268 269 5
268 296 2
269 270 4
269 297 4
270 271 4
270 298 5
271 272 5
271 299 5
272 273 2
272 300 5
273 274 5
273 301 1
274 275 3
274 302 4
275 276 5
275 303 5
276 277 4
276 304 2
277 278 3
277 305 1
278 279 5
278 306 1
279 280 4
279 307 4
280 308 3
281 282 2
281 309 4
282 283 2
282 310 2
283 284 1
283 311 3
284 285 5
284 312 3
285 286 4
285 313 5
286 287 2
286 314 5
287 288 4
287 315 3
288 289 1
288 316 2
289 290 5
289 317 3
290 291 3
290 318 3
291 292 2
291 319 1
292 293 3
292 320 1
293 294 3
293 321 4
294 295 2
294 322 5
295 296 3
295 323 4
296 297 1
296 324 4
297 298 5
297 325 2
298 299 2
298 326 5
299 300 5
299 327 3
300 301 5
300 328 5
301 302 1
301 329 2
302 303 1
302 330 5
303 304 1
303 331 1
304 305 2
304 332 4
305 306 2
305 333 1
306 307 1
306 334 1
307 308 3
307 335 3
308 336 2
309 310 4
309 337 3
310 311 1
310 338 1
311 312 4
311 339 4
312 313 1
312 340 4
313 314 4
313 341 4
314 315 3
314 342 3
315 316 5
315 343 2
316 317 4
316 344 3
317 318 1
317 345 5
318 319 3
318 346 4
319 320 4
319 347 2
320 321 5
320 348 5
321 322 4
321 349 3
322 323 4
322 350 5
323 324 5
323 351 4
324 325 4
324 352 2
325 326 4
325 353 4
326 327 4
326 354 4
327 328 4
327 355 1
328 329 1
328 356 1
329 330 2
329 357 1
330 331 4
330 358 5
331 332 4
331 359 4
332 333 5
332 360 3
333 334 3
333 361 4
334 335 2
334 362 3
335 336 3
335 363 1
336 364 5
337 338 2
337 365 3
338 339 3
338 366 2
339 340 5
339 367 3
340 341 2
340 368 1
341 342 2
341 369 3
342 343 5
342 370 4
343 344 3
343 371 3
344 345 5
344 372 4
345 346 3
345 373 4
346 347 1
346 374 4
347 348 5
347 375 1
348 349 1
348 376 1
349 350 1
349 377 2
350 351 3
350 378 2
351 352 2
351 379 5
352 353 4
352 380 3
353 354 5
353 381 1
354 355 1
354 382 4
355 356 1
355 383 3
356 357 1
356 384 4
357 358 2
357 385 4
358 359 4
358 386 2
359 360 2
359 387 2
360 361 2
360 388 1
361 362 2
361 389 1
362 363 4
362 390 3
363 364 4
363 391 2
364 392 4
365 366 5
365 393 5
366 367 4
366 394 3
367 368 3
367 395 4
368 369 3
368 396 2
369 370 3
369 397 2
370 371 1
370 398 3
371 372 2
371 399 2
372 373 2
372 400 2
373 374 3
373 401 4
374 375 2
374 402 3
375 376 1
375 403 4
376 377 2
376 404 5
377 378 5
377 405 1
378 379 3
378 406 1
379 380 2
379 407 2
380 381 1
380 408 4
381 382 4
381 409 3
382 383 3
382 410 2
383 384 2
383 411 5
384 385 4
384 412 2
385 386 4
385 413 2
386 387 1
386 414 2
387 388 3
387 415 1
388 389 2
388 416 5
389 390 5
389 417 4
390 391 4
390 418 2
391 392 2
391 419 4
392 420 4
393 394 1
393 421 1
394 395 5
394 422 1
395 396 2
395 423 3
396 397 3
396 424 3
397 398 2
397 425 1
398 399 2
398 426 3
399 400 3
399 427 2
400 401 4
400 428 5
401 402 2
401 429 2
402 403 4
402 430 5
403 404 2
403 431 1
404 405 4
404 432 2
405 406 2
405 433 2
406 407 2
406 434 2
407 408 2
407 435 3
408 409 4
408 436 5
409 410 4
409 437 4
410 411 5
410 438 5
411 412 1
411 439 1
412 413 2
412 440 1
413 414 4
413 441 4
414 415 1
414 442 5
415 416 3
415 443 4
416 417 1
416 444 1
417 418 5
417 445 4
418 419 3
418 446 2
419 420 3
419 447 5
420 448 4
421 422 1
421 449 3
422 423 3
422 450 3
423 424 1
423 451 4
424 425 1
424 452 4
425 426 5
425 453 2
426 427 2
426 454 5
427 428 2
427 455 1
428 429 5
428 456 4
429 430 4
429 457 5
430 431 5
430 458 5
431 432 2
431 459 1
432 433 2
432 460 2
433 434 2
433 461 2
434 435 2
434 462 3
435 436 1
435 463 1
436 437 3
436 464 3
437 438 1
437 465 4
438 439 2
438 466 2
439 440 2
439 467 1
440 441 3
440 468 3
441 442 1
441 469 5
442 443 3
442 470 1
443 444 1
443 471 2
444 445 2
444 472 5
445 446 2
445 473 5
446 447 1
446 474 2
447 448 1
447 475 5
448 476 2
449 450 5
449 477 2
450 451 5
450 478 2
451 452 3
451 479 1
452 453 3
452 480 5
453 454 1
453 481 2
454 455 4
454 482 2
455 456 4
455 483 1
456 457 5
456 484 5
457 458 2
457 485 3
458 459 1
458 486 2
459 460 4
459 487 3
460 461 3
460 488 5
461 462 2
461 489 1
462 463 2
462 490 4
463 464 2
463 491 1
464 465 3
464 492 5
465 466 3
465 493 5
466 467 4
466 494 2
467 468 2
467 495 1
468 469 5
468 496 4
469 470 3
469 497 2
470 471 5
470 498 5
471 472 4
471 499 1
472 473 2
472 500 3
473 474 5
473 501 2
474 475 5
474 502 1
475 476 3
475 503 5
476 504 1
477 478 1
477 505 4
478 479 1
478 506 2
479 480 4
479 507 4
480 481 2
480 508 3
481 482 2
481 509 3
482 483 3
482 510 2
483 484 2
483 511 2
484 485 1
484 512 2
485 486 2
485 513 1
486 487 3
486 514 2
487 488 4
487 515 5
488 489 2
488 516 3
489 490 4
489 517 2
490 491 5
490 518 4
491 492 2
491 519 4
492 493 3
492 520 3
493 494 5
493 521 3
494 495 2
494 522 2
495 496 3
495 523 5
496 497 3
496 524 2
497 498 2
497 525 1
498 499 1
498 526 2
499 500 4
499 527 1
500 501 4
500 528 4
501 502 3
501 529 3
502 503 1
502 530 5
503 504 2
503 531 1
504 532 1
505 506 2
505 533 4
506 507 2
506 534 5
507 508 4
507 535 2
508 509 4
508 536 3
509 510 3
509 537 5
510 511 4
510 538 1
511 512 5
511 539 2
512 513 2
512 540 4
513 514 1
513 541 2
514 515 5
514 542 5
515 516 5
515 543 3
516 517 2
516 544 2
517 518 5
517 545 3
518 519 2
518 546 1
519 520 5
519 547 1
520 521 2
520 548 3
521 522 1
521 549 4
522 523 5
522 550 3
523 524 3
523 551 2
524 525 4
524 552 4
525 526 2
525 553 2
526 527 3
526 554 3
527 528 1
527 555 4
528 529 2
528 556 1
529 530 3
529 557 1
530 531 4
530 558 5
531 532 2
531 559 1
532 560 4
533 534 1
533 561 4
534 535 4
534 562 5
535 536 4
535 563 5
536 537 3
536 564 2
537 538 4
537 565 3
538 539 3
538 566 5
539 540 5
539 567 4
540 541 4
540 568 2
541 542 1
541 569 5
542 543 2
542 570 2
543 544 4
543 571 4
544 545 2
544 572 2
545 546 5
545 573 4
546 547 3
546 574 4
547 548 1
547 575 1
548 549 4
548 576 3
549 550 4
549 577 3
550 551 1
550 578 3
551 552 5
551 579 3
552 553 4
552 580 1
553 554 4
553 581 5
554 555 4
554 582 4
555 556 3
555 583 5
556 557 5
556 584 4
557 558 2
557 585 3
558 559 5
558 586 5
559 560 5
559 587 2
560 588 2
561 562 4
561 589 2
562 563 3
562 590 3
563 564 5
563 591 2
564 565 5
564 592 1
565 566 4
565 593 1
566 567 3
566 594 3
567 568 2
567 595 2
568 569 4
568 596 2
569 570 5
569 597 3
570 571 1
570 598 3
571 572 3
571 599 1
572 573 2
572 600 2
573 574 3
573 601 5
574 575 4
574 602 4
575 576 1
575 603 2
576 577 5
576 604 1
577 578 2
577 605 1
578 579 2
578 606 1
579 580 3
579 607 5
580 581 1
580 608 5
581 582 4
581 609 3
582 583 4
582 610 4
583 584 5
583 611 5
584 585 5
584 612 3
585 586 2
585 613 1
586 587 5
586 614 2
587 588 5
587 615 4
588 616 4
589 590 5
589 617 3
590 591 2
590 618 4
591 592 4
591 619 3
592 593 1
592 620 1
593 594 4
593 621 3
594 595 5
594 622 4
595 596 4
595 623 4
596 597 4
596 624 5
597 598 3
597 625 1
598 599 4
598 626 1
599 600 3
599 627 5
600 601 5
600 628 2
601 602 2
601 629 4
602 603 5
602 630 1
603 604 5
603 631 3
604 605 5
604 632 5
605 606 1
605 633 5
606 607 3
606 634 3
607 608 2
607 635 2
608 609 3
608 636 3
609 610 1
609 637 5
610 611 1
610 638 5
611 612 1
611 639 4
612 613 4
612 640 4
613 614 3
613 641 4
614 615 4
614 642 5
615 616 2
615 643 1
616 644 2
617 618 3
617 645 1
618 619 1
618 646 2
619 620 5
619 647 2
620 621 2
620 648 1
621 622 2
621 649 3
622 623 1
622 650 4
623 624 4
623 651 1
624 625 1
624 652 2
625 626 2
625 653 5
626 627 5
626 654 1
627 628 4
627 655 5
628 629 3
628 656 4
629 630 4
629 657 4
630 631 4
630 658 4
631 632 4
631 659 4
632 633 1
632 660 2
633 634 5
633 661 2
634 635 5
634 662 4
635 636 3
635 663 3
636 637 1
636 664 4
637 638 1
637 665 5
638 639 3
638 666 1
639 640 2
639 667 5
640 641 2
640 668 1
641 642 1
641 669 5
642 643 2
642 670 5
643 644 2
643 671 3
644 672 4
645 646 5
645 673 1
646 647 3
646 674 3
647 648 2
647 675 3
648 649 2
648 676 4
649 650 3
649 677 5
650 651 5
650 678 2
651 652 4
651 679 4
652 653 3
652 680 1
653 654 5
653 681 5
654 655 5
654 682 1
655 656 1
655 683 5
656 657 2
656 684 4
657 658 4
657 685 2
658 659 1
658 686 2
659 660 4
659 687 4
660 661 2
660 688 4
661 662 4
661 689 4
662 663 4
662 690 4
663 664 4
663 691 4
664 665 3
664 692 2
665 666 4
665 693 5
666 667 5
666 694 4
667 668 3
667 695 4
668 669 5
668 696 1
669 670 2
669 697 3
670 671 4
670 698 3
671 672 3
671 699 3
672 700 2
673 674 1
673 701 3
674 675 2
674 702 2
675 676 3
675 703 3
676 677 3
676 704 3
677 678 1
677 705 4
678 679 3
678 706 1
679 680 3
679 707 2
680 681 1
680 708 3
681 682 4
681 709 4
682 683 4
682 710 5
683 684 1
683 711 3
684 685 5
684 712 1
685 686 2
685 713 4
686 687 1
686 714 3
687 688 1
687 715 4
688 689 3
688 716 4
689 690 3
689 717 3
690 691 2
690 718 1
691 692 1
691 719 1
692 693 1
692 720 4
693 694 4
693 721 4
694 695 4
694 722 5
695 696 3
695 723 3
696 697 2
696 724 5
697 698 2
697 725 5
698 699 4
698 726 1
699 700 3
699 727 2
700 728 5
701 702 1
701 729 5
702 703 1
702 730 4
703 704 4
703 731 4
704 705 4
704 732 4
705 706 3
705 733 4
706 707 5
706 734 1
707 708 4
707 735 2
708 709 5
708 736 4
709 710 1
709 737 3
710 711 3
710 738 5
711 712 5
711 739 2
712 713 5
712 740 5
713 714 3
713 741 3
714 715 3
714 742 2
715 716 5
715 743 5
716 717 5
716 744 5
717 718 5
717 745 5
718 719 5
718 746 1
719 720 4
719 747 5
720 721 5
720 748 4
721 722 5
721 749 3
722 723 2
722 750 5
723 724 3
723 751 5
724 725 1
724 752 2
725 726 5
725 753 2
726 727 1
726 754 5
727 728 4
727 755 5
728 756 2
729 730 2
729 757 3
730 731 3
730 758 4
731 732 4
731 759 4
732 733 1
732 760 3
733 734 3
733 761 4
734 735 1
734 762 3
735 736 1
735 763 3
736 737 3
736 764 4
737 738 4
737 765 1
738 739 5
738 766 4
739 740 1
739 767 3
740 741 5
740 768 3
741 742 4
741 769 1
742 743 4
742 770 1
743 744 2
743 771 1
744 745 4
744 772 4
745 746 5
745 773 2
746 747 3
746 774 5
747 748 4
747 775 1
748 749 1
748 776 1
749 750 5
749 777 4
750 751 3
750 778 4
751 752 5
751 779 5
752 753 1
752 780 5
753 754 2
753 781 2
754 755 3
754 782 1
755 756 3
755 783 5
756 784 5
757 758 3
758 759 4
759 760 3
760 761 3
761 762 4
762 763 4
763 764 3
764 765 4
765 766 5
766 767 2
767 768 3
768 769 4
769 770 2
770 771 1
771 772 3
772 773 5
773 774 1
774 775 1
775 776 2
776 777 4
777 778 5
778 779 1
779 780 4
780 781 2
781 782 1
782 783 2
783 784 5
1 757 2
2 758 1
3 759 5
4 760 5
5 761 5
6 762 2
7 763 5
8 764 3
9 765 3
10 766 3
11 767 5
12 768 1
13 769 1
14 770 4
15 771 2
16 772 5
17 773 5
18 774 1
19 775 5
20 776 4
21 777 4
22 778 3
23 779 2
24 780 5
25 781 5
26 782 5
27 783 1
28 784 2
1 28 4
29 56 2
57 84 1
85 112 4
113 140 5
141 168 3
169 196 2
197 224 3
225 252 3
253 280 3
281 308 2
309 336 4
337 364 5
365 392 1
393 420 2
421 448 5
449 476 3
477 504 4
505 532 2
533 560 1
561 588 1
589 616 4
617 644 1
645 672 5
673 700 5
701 728 4
729 756 3
757 784 1
